SYSTEM = A
IBRION=1
LWAVE=.FALSE.
NPAR=4
NSIM=4
ALGO=normal
#====== DO NOT CHANGE FROM HERE
NSW=0
PSTRESS=PPPP
PREC=AAAA
ISIF=GGGG
ISMEAR=SMSM
SIGMA=SGSG
