SYSTEM = A
IBRION=1
LWAVE=.FALSE.
LCHARG=.FALSE.
NPAR=4
NSIM=4
ALGO=normal
NSW=0
PSTRESS=PPPP
PREC=AAAA
ISIF=GGGG
ISMEAR=SMSM
SIGMA=SGSG
